
Log started (V11.0.0) Mon Apr 14 18:09:37 2008

Tried aggregator 1 time.
Reduced MIP has 550 rows, 25001 columns, and 50050 nonzeros.
Presolve time =    0.19 sec.
Clique table members: 500.
MIP emphasis: balance optimality and feasibility.
MIP search method: dynamic search.
Parallel mode: none, using 1 thread.
Root relaxation solution time =    0.97 sec.

        Nodes                                         Cuts/
   Node  Left     Objective  IInf  Best Integer     Best Node    ItCnt     Gap

*     0+    0                        25361.0000       25.0321     1487   99.90%
*     0+    0                           32.0000       25.0321     1487   21.77%
      0     0       26.0000    51       32.0000      Fract: 3     1508   18.75%
*     0+    0                           31.0000       26.0000     1508   16.13%
*     0+    0                           30.0000       26.0000     1508   13.33%

Repeating presolve.
Tried aggregator 1 time.
MIP Presolve eliminated 0 rows and 17726 columns.
Reduced MIP has 550 rows, 7275 columns, and 14598 nonzeros.
Tried aggregator 1 time.
Represolve time =    0.42 sec.
Clique table members: 1055.
MIP emphasis: balance optimality and feasibility.
MIP search method: dynamic search.
Parallel mode: none, using 1 thread.
Root relaxation solution time =    0.19 sec.

        Nodes                                         Cuts/
   Node  Left     Objective  IInf  Best Integer     Best Node    ItCnt     Gap

      0     0       26.0000    81       30.0000       26.0000      941   13.33%
      0     2       26.0000    81       30.0000       26.0000      941   13.33%
*    40+   40                           29.0000       26.0000     3655   10.34%
*    50+   49                           28.0000       26.0000     4275    7.14%
    100   100       27.0000    32       28.0000       26.0000     5931    7.14%
    200   198       27.0000    28       28.0000       26.0000     9266    7.14%
    300   288    infeasible             28.0000       26.0000    15225    7.14%
    400   364       26.0000    78       28.0000       26.0000    26357    7.14%
*   420+  106                           27.0000       26.0000    27940    3.70%
    500   152    infeasible             27.0000       26.0000    46771    3.70%
    600   179       26.0000    83       27.0000       26.0000    62225    3.70%
    700   205       26.0000    67       27.0000       26.0000    66994    3.70%
    800   263       26.0000    78       27.0000       26.0000    73212    3.70%
    900   355       26.0000    73       27.0000       26.0000    80355    3.70%
   1000   447       26.0000   101       27.0000       26.0000    86999    3.70%
Elapsed time =  48.44 sec. (tree size =  4.56 MB, solutions = 7)
   1100   537       26.0000    73       27.0000       26.0000    93840    3.70%
   1200   633       26.0000    88       27.0000       26.0000   101845    3.70%
   1300   723       26.0000    83       27.0000       26.0000   109214    3.70%
   1400   819       26.0000    77       27.0000       26.0000   116137    3.70%
   1500   911       26.0000    84       27.0000       26.0000   124560    3.70%
   1600  1003       26.0000    76       27.0000       26.0000   132679    3.70%
   1700  1085    infeasible             27.0000       26.0000   142843    3.70%
   1800  1173       26.0000    89       27.0000       26.0000   153732    3.70%
   1900  1263       26.0000    73       27.0000       26.0000   163697    3.70%
   2000  1351       26.0000    94       27.0000       26.0000   174535    3.70%
Elapsed time =  89.78 sec. (tree size = 17.21 MB, solutions = 7)
   2100  1447       26.0000   109       27.0000       26.0000   183610    3.70%
   2200  1535       26.0000    82       27.0000       26.0000   193851    3.70%
   2300  1627       26.0000   124       27.0000       26.0000   205487    3.70%
   2400  1719       26.0000   104       27.0000       26.0000   215665    3.70%
   2500  1809       26.0000    75       27.0000       26.0000   225731    3.70%
   2600  1899       26.0000    73       27.0000       26.0000   237469    3.70%
   2700  1993    infeasible             27.0000       26.0000   249154    3.70%
   2800  2081       26.0000    73       27.0000       26.0000   261078    3.70%
   2900  2147    infeasible             27.0000       26.0000   279209    3.70%
   3000  2223       26.0000    70       27.0000       26.0000   295188    3.70%
Elapsed time = 152.97 sec. (tree size = 34.14 MB, solutions = 7)
   3100  2301       26.0000    98       27.0000       26.0000   311001    3.70%
   3200  2391       26.0000   106       27.0000       26.0000   324332    3.70%
   3300  2483       26.0000   127       27.0000       26.0000   339705    3.70%
   3400  2575       26.0000   180       27.0000       26.0000   354525    3.70%
   3500  2659       26.0000   109       27.0000       26.0000   371649    3.70%
   3600  2747       26.0000   119       27.0000       26.0000   387071    3.70%
   3700  2833       26.0000   162       27.0000       26.0000   404212    3.70%
   3800  2915       26.0000   101       27.0000       26.0000   419910    3.70%
   3900  3001       26.0000   108       27.0000       26.0000   436530    3.70%
   4000  3089       26.0000   111       27.0000       26.0000   451939    3.70%
Elapsed time = 262.22 sec. (tree size = 57.38 MB, solutions = 7)
   4100  3179       26.0000    94       27.0000       26.0000   465957    3.70%
   4200  3263       26.0000   104       27.0000       26.0000   484169    3.70%
   4300  3341       26.0000   141       27.0000       26.0000   504069    3.70%
   4400  3433       26.0000   116       27.0000       26.0000   519363    3.70%
   4500  3527       26.0000   155       27.0000       26.0000   534670    3.70%
   4600  3619       26.0000   126       27.0000       26.0000   550004    3.70%
   4700  3707       26.0000   155       27.0000       26.0000   563592    3.70%
   4800  3797       26.0000    77       27.0000       26.0000   579539    3.70%
   4900  3887       26.0000   188       27.0000       26.0000   598630    3.70%
   5000  3969       26.0000   135       27.0000       26.0000   618849    3.70%
Elapsed time = 405.45 sec. (tree size = 86.50 MB, solutions = 7)
   5100  4053       26.0000    99       27.0000       26.0000   639504    3.70%
   5200  4123       26.0000   103       27.0000       26.0000   661850    3.70%
   5300  4211       26.0000   149       27.0000       26.0000   677859    3.70%
   5400  4299       26.0000   208       27.0000       26.0000   694663    3.70%
   5500  4383       26.0000   163       27.0000       26.0000   714553    3.70%
   5600  4467       26.0000   157       27.0000       26.0000   732334    3.70%
   5700  4553       26.0000   119       27.0000       26.0000   750655    3.70%
*  5720     0      integral     0       26.0000       26.0000   754661    0.00%

Cover cuts applied:  2651
Zero-half cuts applied:  5
Gomory fractional cuts applied:  6

Solution pool: 8 solutions saved.

MIP - Integer optimal solution:  Objective = 2.6000000000e+001
Solution time =  541.33 sec.  Iterations = 754661  Nodes = 5721


Incumbent solution
Variable Name           Solution Value
Cmax                         26.000000
X_1_40                        1.000000
X_2_16                        1.000000
X_3_40                        1.000000
X_4_10                        1.000000
X_5_31                        1.000000
X_6_7                         1.000000
X_7_17                        1.000000
X_8_23                        1.000000
X_9_32                        1.000000
X_10_46                       1.000000
X_11_39                       1.000000
X_12_47                       1.000000
X_13_31                       1.000000
X_14_16                       1.000000
X_15_4                        1.000000
X_16_38                       1.000000
X_17_28                       1.000000
X_18_29                       1.000000
X_19_9                        1.000000
X_20_16                       1.000000
X_21_19                       1.000000
X_22_13                       1.000000
X_23_4                        1.000000
X_24_7                        1.000000
X_25_12                       1.000000
X_26_28                       1.000000
X_27_23                       1.000000
X_28_16                       1.000000
X_29_6                        1.000000
X_30_14                       1.000000
X_31_15                       1.000000
X_32_30                       1.000000
X_33_5                        1.000000
X_34_40                       1.000000
X_35_7                        1.000000
X_36_13                       1.000000
X_37_15                       1.000000
X_38_26                       1.000000
X_39_31                       1.000000
X_40_36                       1.000000
X_41_2                        1.000000
X_42_33                       1.000000
X_43_44                       1.000000
X_44_9                        1.000000
X_45_45                       1.000000
X_46_42                       1.000000
X_47_19                       1.000000
X_48_30                       1.000000
X_49_18                       1.000000
X_50_32                       1.000000
X_51_35                       1.000000
X_52_37                       1.000000
X_53_15                       1.000000
X_54_3                        1.000000
X_55_25                       1.000000
X_56_17                       1.000000
X_57_2                        1.000000
X_58_26                       1.000000
X_59_12                       1.000000
X_60_3                        1.000000
X_61_34                       1.000000
X_62_3                        1.000000
X_63_28                       1.000000
X_64_13                       1.000000
X_65_29                       1.000000
X_66_49                       1.000000
X_67_20                       1.000000
X_68_2                        1.000000
X_69_27                       1.000000
X_70_45                       1.000000
X_71_20                       1.000000
X_72_39                       1.000000
X_73_29                       1.000000
X_74_31                       1.000000
X_75_39                       1.000000
X_76_11                       1.000000
X_77_40                       1.000000
X_78_12                       1.000000
X_79_9                        1.000000
X_80_47                       1.000000
X_81_48                       1.000000
X_82_27                       1.000000
X_83_15                       1.000000
X_84_41                       1.000000
X_85_16                       1.000000
X_86_7                        1.000000
X_87_9                        1.000000
X_88_1                        1.000000
X_89_2                        1.000000
X_90_18                       1.000000
X_91_37                       1.000000
X_92_9                        1.000000
X_93_19                       1.000000
X_94_6                        1.000000
X_95_9                        1.000000
X_96_14                       1.000000
X_97_40                       1.000000
X_98_30                       1.000000
X_99_14                       1.000000
X_100_47                      1.000000
X_101_38                      1.000000
X_102_6                       1.000000
X_103_35                      1.000000
X_104_31                      1.000000
X_105_35                      1.000000
X_106_44                      1.000000
X_107_41                      1.000000
X_108_39                      1.000000
X_109_35                      1.000000
X_110_41                      1.000000
X_111_26                      1.000000
X_112_29                      1.000000
X_113_31                      1.000000
X_114_38                      1.000000
X_115_11                      1.000000
X_116_5                       1.000000
X_117_36                      1.000000
X_118_27                      1.000000
X_119_11                      1.000000
X_120_22                      1.000000
X_121_11                      1.000000
X_122_34                      1.000000
X_123_25                      1.000000
X_124_41                      1.000000
X_125_50                      1.000000
X_126_1                       1.000000
X_127_17                      1.000000
X_128_10                      1.000000
X_129_9                       1.000000
X_130_5                       1.000000
X_131_11                      1.000000
X_132_42                      1.000000
X_133_25                      1.000000
X_134_25                      1.000000
X_135_17                      1.000000
X_136_4                       1.000000
X_137_40                      1.000000
X_138_22                      1.000000
X_139_14                      1.000000
X_140_47                      1.000000
X_141_13                      1.000000
X_142_19                      1.000000
X_143_36                      1.000000
X_144_48                      1.000000
X_145_9                       1.000000
X_146_28                      1.000000
X_147_40                      1.000000
X_148_3                       1.000000
X_149_7                       1.000000
X_150_29                      1.000000
X_151_4                       1.000000
X_152_49                      1.000000
X_153_8                       1.000000
X_154_1                       1.000000
X_155_16                      1.000000
X_156_1                       1.000000
X_157_32                      1.000000
X_158_35                      1.000000
X_159_45                      1.000000
X_160_6                       1.000000
X_161_4                       1.000000
X_162_15                      1.000000
X_163_20                      1.000000
X_164_39                      1.000000
X_165_6                       1.000000
X_166_5                       1.000000
X_167_45                      1.000000
X_168_24                      1.000000
X_169_36                      1.000000
X_170_14                      1.000000
X_171_46                      1.000000
X_172_26                      1.000000
X_173_25                      1.000000
X_174_50                      1.000000
X_175_40                      1.000000
X_176_24                      1.000000
X_177_48                      1.000000
X_178_16                      1.000000
X_179_19                      1.000000
X_180_19                      1.000000
X_181_34                      1.000000
X_182_29                      1.000000
X_183_19                      1.000000
X_184_33                      1.000000
X_185_46                      1.000000
X_186_12                      1.000000
X_187_22                      1.000000
X_188_2                       1.000000
X_189_39                      1.000000
X_190_6                       1.000000
X_191_37                      1.000000
X_192_20                      1.000000
X_193_37                      1.000000
X_194_45                      1.000000
X_195_41                      1.000000
X_196_24                      1.000000
X_197_28                      1.000000
X_198_3                       1.000000
X_199_13                      1.000000
X_200_33                      1.000000
X_201_31                      1.000000
X_202_24                      1.000000
X_203_1                       1.000000
X_204_27                      1.000000
X_205_41                      1.000000
X_206_38                      1.000000
X_207_18                      1.000000
X_208_26                      1.000000
X_209_47                      1.000000
X_210_23                      1.000000
X_211_5                       1.000000
X_212_43                      1.000000
X_213_10                      1.000000
X_214_8                       1.000000
X_215_43                      1.000000
X_216_50                      1.000000
X_217_44                      1.000000
X_218_41                      1.000000
X_219_8                       1.000000
X_220_19                      1.000000
X_221_2                       1.000000
X_222_47                      1.000000
X_223_25                      1.000000
X_224_3                       1.000000
X_225_24                      1.000000
X_226_5                       1.000000
X_227_18                      1.000000
X_228_2                       1.000000
X_229_32                      1.000000
X_230_5                       1.000000
X_231_35                      1.000000
X_232_28                      1.000000
X_233_29                      1.000000
X_234_10                      1.000000
X_235_28                      1.000000
X_236_50                      1.000000
X_237_22                      1.000000
X_238_4                       1.000000
X_239_44                      1.000000
X_240_17                      1.000000
X_241_24                      1.000000
X_242_21                      1.000000
X_243_43                      1.000000
X_244_20                      1.000000
X_245_14                      1.000000
X_246_37                      1.000000
X_247_44                      1.000000
X_248_13                      1.000000
X_249_15                      1.000000
X_250_38                      1.000000
X_251_37                      1.000000
X_252_4                       1.000000
X_253_41                      1.000000
X_254_5                       1.000000
X_255_21                      1.000000
X_256_23                      1.000000
X_257_15                      1.000000
X_258_33                      1.000000
X_259_49                      1.000000
X_260_30                      1.000000
X_261_39                      1.000000
X_262_16                      1.000000
X_263_39                      1.000000
X_264_23                      1.000000
X_265_16                      1.000000
X_266_38                      1.000000
X_267_45                      1.000000
X_268_46                      1.000000
X_269_49                      1.000000
X_270_1                       1.000000
X_271_45                      1.000000
X_272_31                      1.000000
X_273_50                      1.000000
X_274_22                      1.000000
X_275_7                       1.000000
X_276_47                      1.000000
X_277_45                      1.000000
X_278_42                      1.000000
X_279_22                      1.000000
X_280_39                      1.000000
X_281_4                       1.000000
X_282_48                      1.000000
X_283_32                      1.000000
X_284_47                      1.000000
X_285_12                      1.000000
X_286_38                      1.000000
X_287_38                      1.000000
X_288_20                      1.000000
X_289_35                      1.000000
X_290_32                      1.000000
X_291_50                      1.000000
X_292_38                      1.000000
X_293_35                      1.000000
X_294_8                       1.000000
X_295_14                      1.000000
X_296_29                      1.000000
X_297_13                      1.000000
X_298_23                      1.000000
X_299_9                       1.000000
X_300_39                      1.000000
X_301_27                      1.000000
X_302_32                      1.000000
X_303_47                      1.000000
X_304_39                      1.000000
X_305_34                      1.000000
X_306_26                      1.000000
X_307_13                      1.000000
X_308_17                      1.000000
X_309_8                       1.000000
X_310_30                      1.000000
X_311_2                       1.000000
X_312_21                      1.000000
X_313_46                      1.000000
X_314_10                      1.000000
X_315_17                      1.000000
X_316_49                      1.000000
X_317_44                      1.000000
X_318_27                      1.000000
X_319_26                      1.000000
X_320_16                      1.000000
X_321_4                       1.000000
X_322_17                      1.000000
X_323_45                      1.000000
X_324_20                      1.000000
X_325_29                      1.000000
X_326_10                      1.000000
X_327_20                      1.000000
X_328_49                      1.000000
X_329_44                      1.000000
X_330_37                      1.000000
X_331_14                      1.000000
X_332_6                       1.000000
X_333_21                      1.000000
X_334_11                      1.000000
X_335_48                      1.000000
X_336_35                      1.000000
X_337_18                      1.000000
X_338_33                      1.000000
X_339_41                      1.000000
X_340_2                       1.000000
X_341_13                      1.000000
X_342_5                       1.000000
X_343_22                      1.000000
X_344_44                      1.000000
X_345_4                       1.000000
X_346_34                      1.000000
X_347_28                      1.000000
X_348_35                      1.000000
X_349_24                      1.000000
X_350_12                      1.000000
X_351_21                      1.000000
X_352_33                      1.000000
X_353_29                      1.000000
X_354_2                       1.000000
X_355_33                      1.000000
X_356_3                       1.000000
X_357_17                      1.000000
X_358_18                      1.000000
X_359_32                      1.000000
X_360_12                      1.000000
X_361_24                      1.000000
X_362_37                      1.000000
X_363_3                       1.000000
X_364_34                      1.000000
X_365_3                       1.000000
X_366_15                      1.000000
X_367_32                      1.000000
X_368_49                      1.000000
X_369_36                      1.000000
X_370_17                      1.000000
X_371_30                      1.000000
X_372_48                      1.000000
X_373_3                       1.000000
X_374_47                      1.000000
X_375_4                       1.000000
X_376_21                      1.000000
X_377_48                      1.000000
X_378_48                      1.000000
X_379_40                      1.000000
X_380_44                      1.000000
X_381_8                       1.000000
X_382_29                      1.000000
X_383_25                      1.000000
X_384_46                      1.000000
X_385_43                      1.000000
X_386_4                       1.000000
X_387_36                      1.000000
X_388_25                      1.000000
X_389_24                      1.000000
X_390_23                      1.000000
X_391_43                      1.000000
X_392_25                      1.000000
X_393_41                      1.000000
X_394_48                      1.000000
X_395_8                       1.000000
X_396_49                      1.000000
X_397_1                       1.000000
X_398_17                      1.000000
X_399_7                       1.000000
X_400_10                      1.000000
X_401_2                       1.000000
X_402_40                      1.000000
X_403_17                      1.000000
X_404_24                      1.000000
X_405_42                      1.000000
X_406_39                      1.000000
X_407_9                       1.000000
X_408_31                      1.000000
X_409_6                       1.000000
X_410_12                      1.000000
X_411_34                      1.000000
X_412_18                      1.000000
X_413_44                      1.000000
X_414_3                       1.000000
X_415_18                      1.000000
X_416_35                      1.000000
X_417_23                      1.000000
X_418_27                      1.000000
X_419_16                      1.000000
X_420_34                      1.000000
X_421_14                      1.000000
X_422_30                      1.000000
X_423_45                      1.000000
X_424_27                      1.000000
X_425_47                      1.000000
X_426_5                       1.000000
X_427_42                      1.000000
X_428_13                      1.000000
X_429_25                      1.000000
X_430_22                      1.000000
X_431_36                      1.000000
X_432_40                      1.000000
X_433_46                      1.000000
X_434_13                      1.000000
X_435_31                      1.000000
X_436_35                      1.000000
X_437_7                       1.000000
X_438_16                      1.000000
X_439_11                      1.000000
X_440_31                      1.000000
X_441_12                      1.000000
X_442_9                       1.000000
X_443_20                      1.000000
X_444_18                      1.000000
X_445_43                      1.000000
X_446_27                      1.000000
X_447_38                      1.000000
X_448_35                      1.000000
X_449_42                      1.000000
X_450_42                      1.000000
X_451_3                       1.000000
X_452_22                      1.000000
X_453_25                      1.000000
X_454_50                      1.000000
X_455_19                      1.000000
X_456_50                      1.000000
X_457_46                      1.000000
X_458_18                      1.000000
X_459_1                       1.000000
X_460_41                      1.000000
X_461_13                      1.000000
X_462_21                      1.000000
X_463_18                      1.000000
X_464_13                      1.000000
X_465_3                       1.000000
X_466_8                       1.000000
X_467_30                      1.000000
X_468_33                      1.000000
X_469_10                      1.000000
X_470_18                      1.000000
X_471_12                      1.000000
X_472_9                       1.000000
X_473_15                      1.000000
X_474_33                      1.000000
X_475_21                      1.000000
X_476_2                       1.000000
X_477_20                      1.000000
X_478_50                      1.000000
X_479_37                      1.000000
X_480_18                      1.000000
X_481_28                      1.000000
X_482_10                      1.000000
X_483_15                      1.000000
X_484_4                       1.000000
X_485_1                       1.000000
X_486_50                      1.000000
X_487_49                      1.000000
X_488_27                      1.000000
X_489_42                      1.000000
X_490_17                      1.000000
X_491_19                      1.000000
X_492_1                       1.000000
X_493_16                      1.000000
X_494_27                      1.000000
X_495_13                      1.000000
X_496_30                      1.000000
X_497_13                      1.000000
X_498_41                      1.000000
X_499_1                       1.000000
X_500_21                      1.000000
All other variables in the range 1-25001 are 0.
